
  17    4
  10   10   10   10

   0   0   0   0   0   4 2 3 4 6 
   6  10  10  10  10   4 11 9 8 5 
   8  10  10  10  10   4 12 11 10 9 
   7  10  10  10  10   3 12 10 8 
  10  10  10  10  10   2 12 7 
   8  10  10  10  10   2 12 7 
   7  10  10  10  10   4 16 15 14 13 
   7  10  10  10  10   3 16 14 13 
   4  10  10  10  10   3 15 14 13 
   9  10  10  10  10   2 16 13 
  10  10  10  10  10   2 14 13 
   4  10  10  10  10   1 15 
   3  10  10  10  10   1 17
   6  10  10  10  10   1 17
   3  10  10  10  10   1 17
   6  10  10  10  10   1 17
   0   0   0   0   0   0 
